set VV := 0 1 2 3 4 5 6 7 8 9 10 11 ;
set VS := 0 1 2 3 4 5 6 7 8 9 10 11 12 13 14 15 16 17 18 19 20 21 22 23 24 25 26 27 28 ;
param cv := 
0 12
1 21
2 10
3 14
4 10
5 20
6 25
7 20
8 18
9 10
10 14
11 13
;
param cs := 
0 39
1 32
2 23
3 33
4 21
5 38
6 35
7 28
8 29
9 32
10 30
11 38
12 23
13 34
14 36
15 22
16 23
17 37
18 25
19 28
20 34
21 29
22 29
23 38
24 20
25 33
26 38
27 21
28 37
;
param bv:	 0 1 2 3 4 5 6 7 8 9 10 11 := 
		0 0 0 0 25 0 10 0 0 0 0 0 0 
		1 0 0 13 0 0 0 0 0 21 0 0 0 
		2 0 0 0 0 0 0 13 0 0 0 12 0 
		3 0 0 0 0 21 0 0 0 25 25 0 0 
		4 0 0 0 0 0 0 0 0 0 13 0 0 
		5 0 0 0 0 0 0 0 0 0 0 0 13 
		6 0 0 0 0 0 0 0 0 0 0 23 0 
		7 0 0 0 0 0 0 0 0 19 0 0 0 
		8 0 0 0 0 0 0 0 0 0 0 0 0 
		9 0 0 0 0 0 0 0 0 0 0 0 0 
		10 0 0 0 0 0 0 0 0 0 0 0 0 
		11 0 0 0 0 0 0 0 0 0 0 0 0 
;
param bs:	 0 1 2 3 4 5 6 7 8 9 10 11 12 13 14 15 16 17 18 19 20 21 22 23 24 25 26 27 28 := 
		0 0 35 0 0 0 0 0 0 23 0 24 0 0 0 0 0 0 39 0 0 38 0 0 0 0 0 38 0 25 
		1 35 0 0 23 0 0 0 0 0 0 0 0 0 0 0 0 0 0 0 0 0 0 26 0 0 0 0 0 0 
		2 0 0 0 0 0 0 0 0 0 0 0 0 0 0 24 0 0 32 0 0 0 0 0 0 0 0 0 0 39 
		3 0 23 0 0 20 0 0 0 0 26 0 0 0 0 0 0 0 0 0 0 0 0 0 0 0 0 26 0 0 
		4 0 0 0 20 0 29 0 25 0 0 0 0 0 0 0 0 0 0 0 37 36 0 26 0 0 0 36 0 0 
		5 0 0 0 0 29 0 0 0 0 0 0 22 31 0 0 0 0 0 0 0 0 21 0 0 0 36 0 0 0 
		6 0 0 0 0 0 0 0 0 0 0 0 0 0 0 20 23 0 0 0 0 0 0 20 0 26 0 0 26 37 
		7 0 0 0 0 25 0 0 0 0 0 0 0 0 0 0 0 0 0 0 0 0 0 0 0 0 0 0 0 29 
		8 23 0 0 0 0 0 0 0 0 0 0 0 0 0 0 0 0 0 0 36 0 37 0 33 0 0 0 0 0 
		9 0 0 0 26 0 0 0 0 0 0 0 0 0 0 0 0 0 0 0 0 28 0 0 0 0 0 0 0 0 
		10 24 0 0 0 0 0 0 0 0 0 0 0 0 0 0 0 0 0 0 0 0 0 0 0 0 0 0 0 0 
		11 0 0 0 0 0 22 0 0 0 0 0 0 0 24 0 0 0 0 0 0 0 0 0 0 0 31 0 0 0 
		12 0 0 0 0 0 31 0 0 0 0 0 0 0 0 0 0 0 0 26 0 0 0 0 0 0 0 0 0 0 
		13 0 0 0 0 0 0 0 0 0 0 0 24 0 0 0 0 23 0 0 0 0 0 0 0 0 0 0 0 0 
		14 0 0 24 0 0 0 20 0 0 0 0 0 0 0 0 0 0 35 0 0 0 0 0 0 0 0 26 39 0 
		15 0 0 0 0 0 0 23 0 0 0 0 0 0 0 0 0 0 0 0 0 0 0 0 0 0 0 0 0 0 
		16 0 0 0 0 0 0 0 0 0 0 0 0 0 23 0 0 0 0 0 0 0 0 0 0 0 0 0 0 0 
		17 39 0 32 0 0 0 0 0 0 0 0 0 0 0 35 0 0 0 0 0 27 0 0 0 0 0 0 0 0 
		18 0 0 0 0 0 0 0 0 0 0 0 0 26 0 0 0 0 0 0 0 0 0 0 0 0 0 0 0 0 
		19 0 0 0 0 37 0 0 0 36 0 0 0 0 0 0 0 0 0 0 0 0 0 0 0 38 0 0 0 0 
		20 38 0 0 0 36 0 0 0 0 28 0 0 0 0 0 0 0 27 0 0 0 0 0 0 0 0 39 0 35 
		21 0 0 0 0 0 21 0 0 37 0 0 0 0 0 0 0 0 0 0 0 0 0 0 0 0 0 0 0 0 
		22 0 26 0 0 26 0 20 0 0 0 0 0 0 0 0 0 0 0 0 0 0 0 0 30 0 0 28 0 33 
		23 0 0 0 0 0 0 0 0 33 0 0 0 0 0 0 0 0 0 0 0 0 0 30 0 0 0 0 0 0 
		24 0 0 0 0 0 0 26 0 0 0 0 0 0 0 0 0 0 0 0 38 0 0 0 0 0 0 0 34 0 
		25 0 0 0 0 0 36 0 0 0 0 0 31 0 0 0 0 0 0 0 0 0 0 0 0 0 0 0 0 0 
		26 38 0 0 26 36 0 0 0 0 0 0 0 0 0 26 0 0 0 0 0 39 0 28 0 0 0 0 0 0 
		27 0 0 0 0 0 0 26 0 0 0 0 0 0 0 39 0 0 0 0 0 0 0 0 0 34 0 0 0 0 
		28 25 0 39 0 0 0 37 29 0 0 0 0 0 0 0 0 0 0 0 0 35 0 33 0 0 0 0 0 0 
;
